(declare-fun ExpandObjSwitcher () Real)
(declare-fun Constructed_Argument_t () String)
(declare-fun CreateAsClass () Bool)
(declare-fun Constructed_Argument_elements_isTTY_0_t () String)
(declare-fun Constructed_Argument_elements_isTTY_0 () String)
(declare-fun CreateAsClass_2 () Bool)
(assert (= ExpandObjSwitcher 0.0))
(assert (= Constructed_Argument_t "object"))
(assert (not CreateAsClass))
(assert (= Constructed_Argument_elements_isTTY_0_t "string"))
(assert (= Constructed_Argument_elements_isTTY_0 ""))
(assert CreateAsClass_2)
(check-sat)
